(set-logic HORN)
(declare-datatypes ((Nat_373 0)) (((Z_1280 ) (S_310 (unS_432 Nat_373)))))
(declare-fun diseqNat_373 (Nat_373 Nat_373) Bool)
(declare-fun unS_433 (Nat_373 Nat_373) Bool)
(declare-fun isZ_289 (Nat_373) Bool)
(declare-fun isS_289 (Nat_373) Bool)
(assert (forall ((x_34682 Nat_373))
	(unS_433 x_34682 (S_310 x_34682))))
(assert (isZ_289 Z_1280))
(assert (forall ((x_34684 Nat_373))
	(isS_289 (S_310 x_34684))))
(assert (forall ((x_34685 Nat_373))
	(diseqNat_373 Z_1280 (S_310 x_34685))))
(assert (forall ((x_34686 Nat_373))
	(diseqNat_373 (S_310 x_34686) Z_1280)))
(assert (forall ((x_34687 Nat_373) (x_34688 Nat_373))
	(=> (diseqNat_373 x_34687 x_34688)
	    (diseqNat_373 (S_310 x_34687) (S_310 x_34688)))))
(declare-fun add_232 (Nat_373 Nat_373 Nat_373) Bool)
(declare-fun minus_228 (Nat_373 Nat_373 Nat_373) Bool)
(declare-fun le_216 (Nat_373 Nat_373) Bool)
(declare-fun ge_216 (Nat_373 Nat_373) Bool)
(declare-fun lt_231 (Nat_373 Nat_373) Bool)
(declare-fun gt_219 (Nat_373 Nat_373) Bool)
(declare-fun mult_216 (Nat_373 Nat_373 Nat_373) Bool)
(declare-fun div_216 (Nat_373 Nat_373 Nat_373) Bool)
(declare-fun mod_218 (Nat_373 Nat_373 Nat_373) Bool)
(assert (forall ((y_1382 Nat_373))
	(add_232 y_1382 Z_1280 y_1382)))
(assert (forall ((x_34658 Nat_373) (y_1382 Nat_373) (r_263 Nat_373))
	(=> (add_232 r_263 x_34658 y_1382)
	    (add_232 (S_310 r_263) (S_310 x_34658) y_1382))))
(assert (forall ((y_1382 Nat_373))
	(minus_228 Z_1280 Z_1280 y_1382)))
(assert (forall ((x_34658 Nat_373) (y_1382 Nat_373) (r_263 Nat_373))
	(=> (minus_228 r_263 x_34658 y_1382)
	    (minus_228 (S_310 r_263) (S_310 x_34658) y_1382))))
(assert (forall ((y_1382 Nat_373))
	(le_216 Z_1280 y_1382)))
(assert (forall ((x_34658 Nat_373) (y_1382 Nat_373))
	(=> (le_216 x_34658 y_1382)
	    (le_216 (S_310 x_34658) (S_310 y_1382)))))
(assert (forall ((y_1382 Nat_373))
	(ge_216 y_1382 Z_1280)))
(assert (forall ((x_34658 Nat_373) (y_1382 Nat_373))
	(=> (ge_216 x_34658 y_1382)
	    (ge_216 (S_310 x_34658) (S_310 y_1382)))))
(assert (forall ((y_1382 Nat_373))
	(lt_231 Z_1280 (S_310 y_1382))))
(assert (forall ((x_34658 Nat_373) (y_1382 Nat_373))
	(=> (lt_231 x_34658 y_1382)
	    (lt_231 (S_310 x_34658) (S_310 y_1382)))))
(assert (forall ((y_1382 Nat_373))
	(gt_219 (S_310 y_1382) Z_1280)))
(assert (forall ((x_34658 Nat_373) (y_1382 Nat_373))
	(=> (gt_219 x_34658 y_1382)
	    (gt_219 (S_310 x_34658) (S_310 y_1382)))))
(assert (forall ((y_1382 Nat_373))
	(mult_216 Z_1280 Z_1280 y_1382)))
(assert (forall ((x_34658 Nat_373) (y_1382 Nat_373) (r_263 Nat_373) (z_1281 Nat_373))
	(=>	(and (mult_216 r_263 x_34658 y_1382)
			(add_232 z_1281 r_263 y_1382))
		(mult_216 z_1281 (S_310 x_34658) y_1382))))
(assert (forall ((x_34658 Nat_373) (y_1382 Nat_373))
	(=> (lt_231 x_34658 y_1382)
	    (div_216 Z_1280 x_34658 y_1382))))
(assert (forall ((x_34658 Nat_373) (y_1382 Nat_373) (r_263 Nat_373) (z_1281 Nat_373))
	(=>	(and (ge_216 x_34658 y_1382)
			(minus_228 z_1281 x_34658 y_1382)
			(div_216 r_263 z_1281 y_1382))
		(div_216 (S_310 r_263) x_34658 y_1382))))
(assert (forall ((x_34658 Nat_373) (y_1382 Nat_373))
	(=> (lt_231 x_34658 y_1382)
	    (mod_218 x_34658 x_34658 y_1382))))
(assert (forall ((x_34658 Nat_373) (y_1382 Nat_373) (r_263 Nat_373) (z_1281 Nat_373))
	(=>	(and (ge_216 x_34658 y_1382)
			(minus_228 z_1281 x_34658 y_1382)
			(mod_218 r_263 z_1281 y_1382))
		(mod_218 r_263 x_34658 y_1382))))
(declare-datatypes ((list_150 0)) (((nil_169 ) (cons_150 (head_300 Nat_373) (tail_300 list_150)))))
(declare-fun diseqlist_150 (list_150 list_150) Bool)
(declare-fun head_301 (Nat_373 list_150) Bool)
(declare-fun tail_301 (list_150 list_150) Bool)
(declare-fun isnil_169 (list_150) Bool)
(declare-fun iscons_150 (list_150) Bool)
(assert (forall ((x_34660 Nat_373) (x_34661 list_150))
	(head_301 x_34660 (cons_150 x_34660 x_34661))))
(assert (forall ((x_34660 Nat_373) (x_34661 list_150))
	(tail_301 x_34661 (cons_150 x_34660 x_34661))))
(assert (isnil_169 nil_169))
(assert (forall ((x_34663 Nat_373) (x_34664 list_150))
	(iscons_150 (cons_150 x_34663 x_34664))))
(assert (forall ((x_34665 Nat_373) (x_34666 list_150))
	(diseqlist_150 nil_169 (cons_150 x_34665 x_34666))))
(assert (forall ((x_34667 Nat_373) (x_34668 list_150))
	(diseqlist_150 (cons_150 x_34667 x_34668) nil_169)))
(assert (forall ((x_34669 Nat_373) (x_34670 list_150) (x_34671 Nat_373) (x_34672 list_150))
	(=> (diseqNat_373 x_34669 x_34671)
	    (diseqlist_150 (cons_150 x_34669 x_34670) (cons_150 x_34671 x_34672)))))
(assert (forall ((x_34669 Nat_373) (x_34670 list_150) (x_34671 Nat_373) (x_34672 list_150))
	(=> (diseqlist_150 x_34670 x_34672)
	    (diseqlist_150 (cons_150 x_34669 x_34670) (cons_150 x_34671 x_34672)))))
(declare-datatypes ((Nat_372 0)) (((zero_85 ) (succ_83 (p_235 Nat_372)))))
(declare-fun diseqNat_372 (Nat_372 Nat_372) Bool)
(declare-fun p_236 (Nat_372 Nat_372) Bool)
(declare-fun iszero_83 (Nat_372) Bool)
(declare-fun issucc_83 (Nat_372) Bool)
(assert (forall ((x_34674 Nat_372))
	(p_236 x_34674 (succ_83 x_34674))))
(assert (iszero_83 zero_85))
(assert (forall ((x_34676 Nat_372))
	(issucc_83 (succ_83 x_34676))))
(assert (forall ((x_34677 Nat_372))
	(diseqNat_372 zero_85 (succ_83 x_34677))))
(assert (forall ((x_34678 Nat_372))
	(diseqNat_372 (succ_83 x_34678) zero_85)))
(assert (forall ((x_34679 Nat_372) (x_34680 Nat_372))
	(=> (diseqNat_372 x_34679 x_34680)
	    (diseqNat_372 (succ_83 x_34679) (succ_83 x_34680)))))
(declare-fun take_34 (list_150 Nat_372 list_150) Bool)
(assert (forall ((x_34606 list_150) (z_1270 Nat_373) (xs_405 list_150) (z_1269 Nat_372))
	(=> (take_34 x_34606 z_1269 xs_405)
	    (take_34 (cons_150 z_1270 x_34606) (succ_83 z_1269) (cons_150 z_1270 xs_405)))))
(assert (forall ((z_1269 Nat_372))
	(take_34 nil_169 (succ_83 z_1269) nil_169)))
(assert (forall ((y_1370 list_150))
	(take_34 nil_169 zero_85 y_1370)))
(declare-fun plus_77 (Nat_372 Nat_372 Nat_372) Bool)
(assert (forall ((x_34610 Nat_372) (z_1271 Nat_372) (y_1371 Nat_372))
	(=> (plus_77 x_34610 z_1271 y_1371)
	    (plus_77 (succ_83 x_34610) (succ_83 z_1271) y_1371))))
(assert (forall ((x_34611 Nat_372))
	(plus_77 x_34611 zero_85 x_34611)))
(declare-fun minus_227 (Nat_372 Nat_372 Nat_372) Bool)
(assert (forall ((x_34612 Nat_372) (y_1373 Nat_372) (z_1272 Nat_372))
	(=> (minus_227 x_34612 z_1272 y_1373)
	    (minus_227 x_34612 (succ_83 z_1272) (succ_83 y_1373)))))
(assert (forall ((z_1272 Nat_372))
	(minus_227 zero_85 (succ_83 z_1272) zero_85)))
(assert (forall ((y_1372 Nat_372))
	(minus_227 zero_85 zero_85 y_1372)))
(declare-fun length_22 (Nat_372 list_150) Bool)
(assert (forall ((x_34616 Nat_372) (x_34617 Nat_372) (y_1374 Nat_373) (l_24 list_150))
	(=>	(and (length_22 x_34617 l_24)
			(plus_77 x_34616 (succ_83 zero_85) x_34617))
		(length_22 x_34616 (cons_150 y_1374 l_24)))))
(assert (length_22 zero_85 nil_169))
(declare-fun go_1 (Nat_372 Nat_372 Nat_372 Nat_372) Bool)
(assert (forall ((x_34620 Nat_372) (x_34594 Nat_372) (x_34593 Nat_372) (x_34592 Nat_372))
	(=> (go_1 x_34620 x_34593 x_34594 (succ_83 x_34592))
	    (go_1 x_34620 (succ_83 x_34593) (succ_83 x_34594) (succ_83 x_34592)))))
(assert (forall ((x_34622 Nat_372) (x_34593 Nat_372) (x_34592 Nat_372))
	(=> (go_1 x_34622 x_34593 x_34592 (succ_83 x_34592))
	    (go_1 x_34622 (succ_83 x_34593) zero_85 (succ_83 x_34592)))))
(assert (forall ((x_34624 Nat_372) (x_34595 Nat_372) (x_34592 Nat_372))
	(=> (minus_227 x_34624 (succ_83 x_34592) (succ_83 x_34595))
	    (go_1 x_34624 zero_85 (succ_83 x_34595) (succ_83 x_34592)))))
(assert (forall ((x_34592 Nat_372))
	(go_1 zero_85 zero_85 zero_85 (succ_83 x_34592))))
(assert (forall ((x_34591 Nat_372) (y_1375 Nat_372))
	(go_1 zero_85 x_34591 y_1375 zero_85)))
(declare-fun modstructural_1 (Nat_372 Nat_372 Nat_372) Bool)
(assert (forall ((x_34628 Nat_372) (x_34596 Nat_372) (y_1376 Nat_372))
	(=> (go_1 x_34628 x_34596 zero_85 y_1376)
	    (modstructural_1 x_34628 x_34596 y_1376))))
(declare-fun drop_36 (list_150 Nat_372 list_150) Bool)
(assert (forall ((x_34630 list_150) (z_1275 Nat_373) (xs_406 list_150) (z_1274 Nat_372))
	(=> (drop_36 x_34630 z_1274 xs_406)
	    (drop_36 x_34630 (succ_83 z_1274) (cons_150 z_1275 xs_406)))))
(assert (forall ((z_1274 Nat_372))
	(drop_36 nil_169 (succ_83 z_1274) nil_169)))
(assert (forall ((x_34633 list_150))
	(drop_36 x_34633 zero_85 x_34633)))
(declare-fun x_34598 (list_150 list_150 list_150) Bool)
(assert (forall ((x_34635 list_150) (z_1276 Nat_373) (xs_407 list_150) (y_1378 list_150))
	(=> (x_34598 x_34635 xs_407 y_1378)
	    (x_34598 (cons_150 z_1276 x_34635) (cons_150 z_1276 xs_407) y_1378))))
(assert (forall ((x_34636 list_150))
	(x_34598 x_34636 nil_169 x_34636)))
(declare-fun rotate_3 (list_150 Nat_372 list_150) Bool)
(assert (forall ((x_34637 list_150) (x_34638 list_150) (z_1278 Nat_373) (xs_408 list_150) (z_1277 Nat_372))
	(=>	(and (x_34598 x_34638 xs_408 (cons_150 z_1278 nil_169))
			(rotate_3 x_34637 z_1277 x_34638))
		(rotate_3 x_34637 (succ_83 z_1277) (cons_150 z_1278 xs_408)))))
(assert (forall ((z_1277 Nat_372))
	(rotate_3 nil_169 (succ_83 z_1277) nil_169)))
(assert (forall ((x_34641 list_150))
	(rotate_3 x_34641 zero_85 x_34641)))
(assert (forall ((x_34642 Nat_372) (x_34643 Nat_372) (x_34644 Nat_372) (x_34645 Nat_372) (x_34601 Nat_372) (y_1380 Nat_372) (z_1279 Nat_372))
	(=>	(and true
			(diseqNat_372 x_34643 x_34645)
			(plus_77 x_34642 y_1380 z_1279)
			(plus_77 x_34643 x_34601 x_34642)
			(plus_77 x_34644 x_34601 y_1380)
			(plus_77 x_34645 x_34644 z_1279))
		false)))
(assert (forall ((x_34646 Nat_372) (x_34647 Nat_372) (x_34602 Nat_372) (y_1381 Nat_372))
	(=>	(and true
			(diseqNat_372 x_34646 x_34647)
			(plus_77 x_34646 x_34602 y_1381)
			(plus_77 x_34647 y_1381 x_34602))
		false)))
(assert (forall ((x_34648 Nat_372) (x_34603 Nat_372))
	(=>	(and true
			(diseqNat_372 x_34648 x_34603)
			(plus_77 x_34648 x_34603 zero_85))
		false)))
(assert (forall ((x_34649 Nat_372) (x_34604 Nat_372))
	(=>	(and true
			(diseqNat_372 x_34649 x_34604)
			(plus_77 x_34649 zero_85 x_34604))
		false)))
(assert (forall ((x_34650 list_150) (x_34651 Nat_372) (x_34652 Nat_372) (x_34653 list_150) (x_34654 Nat_372) (x_34655 Nat_372) (x_34656 list_150) (x_34657 list_150) (n_75 Nat_372) (xs_409 list_150))
	(=>	(and true
			(diseqlist_150 x_34650 x_34657)
			(rotate_3 x_34650 n_75 xs_409)
			(length_22 x_34651 xs_409)
			(modstructural_1 x_34652 n_75 x_34651)
			(drop_36 x_34653 x_34652 xs_409)
			(length_22 x_34654 xs_409)
			(modstructural_1 x_34655 n_75 x_34654)
			(take_34 x_34656 x_34655 xs_409)
			(x_34598 x_34657 x_34653 x_34656))
		false)))
(check-sat)
